0 0 0 1 0 0 1 1 0 0 1 0 
0 10 6 9 7 10 7 10 2 5 5 2 
10 0 7 4 10 8 9 8 4 4 9 7 
6 7 0 9 2 10 3 2 6 2 4 9 
9 4 9 0 9 4 7 7 7 3 4 7 
7 10 2 9 0 8 9 4 10 6 10 3 
10 8 10 4 8 0 2 5 8 8 8 2 
7 9 3 7 9 2 0 2 7 9 4 3 
10 8 2 7 4 5 2 0 2 9 3 3 
2 4 6 7 10 8 7 2 0 2 9 10 
5 4 2 3 6 8 9 9 2 0 5 10 
5 9 4 4 10 8 4 3 9 5 0 3 
2 7 9 7 3 2 3 3 10 10 3 0 
2 3
1B 9B 8P 5B 3B 7P 6B 4P 2B 10B 11P 12B = 37